25° run output:
{
    "Function": "kroA500.tsp",
    "Problem dimension": [
        470,
        454,
        41,
        450,
        277,
        195,
        459,
        279,
        442,
        426,
        152,
        44,
        263,
        443,
        65,
        258,
        188,
        495,
        274,
        22,
        365,
        491,
        100,
        114,
        359,
        86,
        338,
        324,
        355,
        31,
        392,
        254,
        247,
        215,
        234,
        62,
        252,
        83,
        72,
        219,
        424,
        475,
        267,
        357,
        124,
        471,
        37,
        77,
        427,
        241,
        135,
        9,
        103,
        13,
        369,
        483,
        170,
        496,
        229,
        197,
        434,
        50,
        207,
        438,
        295,
        413,
        90,
        125,
        303,
        99,
        395,
        222,
        32,
        278,
        439,
        301,
        142,
        182,
        217,
        5,
        212,
        296,
        309,
        350,
        161,
        111,
        180,
        417,
        209,
        341,
        286,
        482,
        320,
        398,
        246,
        257,
        240,
        372,
        38,
        253,
        63,
        468,
        2,
        148,
        498,
        389,
        331,
        393,
        19,
        447,
        185,
        349,
        414,
        25,
        356,
        418,
        204,
        485,
        283,
        59,
        351,
        383,
        1,
        313,
        143,
        307,
        55,
        227,
        89,
        432,
        244,
        158,
        420,
        27,
        281,
        228,
        410,
        326,
        294,
        492,
        122,
        6,
        36,
        147,
        276,
        499,
        127,
        251,
        205,
        120,
        98,
        91,
        107,
        213,
        75,
        431,
        208,
        84,
        266,
        480,
        489,
        20,
        318,
        366,
        308,
        88,
        462,
        235,
        46,
        236,
        159,
        154,
        129,
        97,
        74,
        69,
        463,
        319,
        340,
        375,
        187,
        298,
        367,
        388,
        79,
        285,
        370,
        268,
        261,
        287,
        425,
        433,
        141,
        153,
        179,
        196,
        237,
        364,
        270,
        474,
        469,
        239,
        146,
        51,
        412,
        202,
        108,
        430,
        139,
        221,
        494,
        363,
        345,
        40,
        382,
        312,
        58,
        325,
        484,
        378,
        68,
        381,
        15,
        189,
        47,
        178,
        198,
        371,
        177,
        429,
        101,
        149,
        260,
        167,
        368,
        184,
        323,
        289,
        490,
        10,
        56,
        245,
        387,
        407,
        150,
        461,
        348,
        134,
        136,
        448,
        238,
        376,
        452,
        93,
        437,
        94,
        422,
        66,
        467,
        225,
        164,
        317,
        259,
        115,
        119,
        176,
        181,
        411,
        130,
        26,
        353,
        344,
        8,
        444,
        428,
        416,
        335,
        210,
        404,
        362,
        162,
        440,
        78,
        57,
        140,
        102,
        358,
        11,
        110,
        226,
        374,
        458,
        216,
        121,
        81,
        275,
        256,
        377,
        160,
        21,
        262,
        402,
        479,
        137,
        230,
        117,
        206,
        391,
        487,
        457,
        109,
        0,
        3,
        96,
        73,
        300,
        292,
        144,
        456,
        328,
        464,
        310,
        183,
        171,
        242,
        306,
        48,
        441,
        214,
        165,
        35,
        220,
        232,
        23,
        123,
        17,
        60,
        53,
        33,
        175,
        436,
        466,
        299,
        92,
        446,
        29,
        34,
        85,
        419,
        408,
        132,
        224,
        451,
        145,
        128,
        42,
        163,
        460,
        131,
        218,
        343,
        282,
        52,
        473,
        71,
        497,
        291,
        191,
        49,
        339,
        327,
        379,
        155,
        435,
        478,
        290,
        70,
        4,
        255,
        329,
        380,
        488,
        271,
        330,
        465,
        54,
        373,
        138,
        87,
        293,
        7,
        397,
        481,
        194,
        354,
        211,
        61,
        106,
        186,
        126,
        386,
        12,
        105,
        264,
        409,
        322,
        248,
        415,
        201,
        172,
        199,
        249,
        284,
        476,
        190,
        14,
        336,
        24,
        168,
        39,
        243,
        43,
        315,
        352,
        486,
        305,
        113,
        455,
        403,
        390,
        311,
        166,
        477,
        82,
        231,
        321,
        346,
        16,
        401,
        316,
        151,
        233,
        314,
        80,
        173,
        200,
        361,
        280,
        45,
        332,
        118,
        273,
        400,
        449,
        174,
        399,
        269,
        304,
        76,
        297,
        133,
        342,
        405,
        302,
        112,
        265,
        104,
        250,
        385,
        156,
        67,
        396,
        445,
        64,
        333,
        30,
        406,
        334,
        288,
        423,
        394,
        192,
        116,
        28,
        193,
        203,
        347,
        493,
        453,
        472,
        337,
        18,
        223,
        421,
        157,
        384,
        95,
        169,
        360,
        272
    ],
    "Global Optimum": 0,
    "Algorithm": "Genetic algorithm",
    "Parameters": {
        "population": 30,
        "offspring": 30,
        "mutation probability": 0.002,
        "crossover probability": 0.9
    },
    "Fitness": 521877,
    "Solution": [
        470,
        454,
        41,
        450,
        277,
        195,
        459,
        279,
        442,
        426,
        152,
        44,
        263,
        443,
        65,
        258,
        188,
        495,
        274,
        22,
        365,
        491,
        100,
        114,
        359,
        86,
        338,
        324,
        355,
        31,
        392,
        254,
        247,
        215,
        234,
        62,
        252,
        83,
        72,
        219,
        424,
        475,
        267,
        357,
        124,
        471,
        37,
        77,
        427,
        241,
        135,
        9,
        103,
        13,
        369,
        483,
        170,
        496,
        229,
        197,
        434,
        50,
        207,
        438,
        295,
        413,
        90,
        125,
        303,
        99,
        395,
        222,
        32,
        278,
        439,
        301,
        142,
        182,
        217,
        5,
        212,
        296,
        309,
        350,
        161,
        111,
        180,
        417,
        209,
        341,
        286,
        482,
        320,
        398,
        246,
        257,
        240,
        372,
        38,
        253,
        63,
        468,
        2,
        148,
        498,
        389,
        331,
        393,
        19,
        447,
        185,
        349,
        414,
        25,
        356,
        418,
        204,
        485,
        283,
        59,
        351,
        383,
        1,
        313,
        143,
        307,
        55,
        227,
        89,
        432,
        244,
        158,
        420,
        27,
        281,
        228,
        410,
        326,
        294,
        492,
        122,
        6,
        36,
        147,
        276,
        499,
        127,
        251,
        205,
        120,
        98,
        91,
        107,
        213,
        75,
        431,
        208,
        84,
        266,
        480,
        489,
        20,
        318,
        366,
        308,
        88,
        462,
        235,
        46,
        236,
        159,
        154,
        129,
        97,
        74,
        69,
        463,
        319,
        340,
        375,
        187,
        298,
        367,
        388,
        79,
        285,
        370,
        268,
        261,
        287,
        425,
        433,
        141,
        153,
        179,
        196,
        237,
        364,
        270,
        474,
        469,
        239,
        146,
        51,
        412,
        202,
        108,
        430,
        139,
        221,
        494,
        363,
        345,
        40,
        382,
        312,
        58,
        325,
        484,
        378,
        68,
        381,
        15,
        189,
        47,
        178,
        198,
        371,
        177,
        429,
        101,
        149,
        260,
        167,
        368,
        184,
        323,
        289,
        490,
        10,
        56,
        245,
        387,
        407,
        150,
        461,
        348,
        134,
        136,
        448,
        238,
        376,
        452,
        93,
        437,
        94,
        422,
        66,
        467,
        225,
        164,
        317,
        259,
        115,
        119,
        176,
        181,
        411,
        130,
        26,
        353,
        344,
        8,
        444,
        428,
        416,
        335,
        210,
        404,
        362,
        162,
        440,
        78,
        57,
        140,
        102,
        358,
        11,
        110,
        226,
        374,
        458,
        216,
        121,
        81,
        275,
        256,
        377,
        160,
        21,
        262,
        402,
        479,
        137,
        230,
        117,
        206,
        391,
        487,
        457,
        109,
        0,
        3,
        96,
        73,
        300,
        292,
        144,
        456,
        328,
        464,
        310,
        183,
        171,
        242,
        306,
        48,
        441,
        214,
        165,
        35,
        220,
        232,
        23,
        123,
        17,
        60,
        53,
        33,
        175,
        436,
        466,
        299,
        92,
        446,
        29,
        34,
        85,
        419,
        408,
        132,
        224,
        451,
        145,
        128,
        42,
        163,
        460,
        131,
        218,
        343,
        282,
        52,
        473,
        71,
        497,
        291,
        191,
        49,
        339,
        327,
        379,
        155,
        435,
        478,
        290,
        70,
        4,
        255,
        329,
        380,
        488,
        271,
        330,
        465,
        54,
        373,
        138,
        87,
        293,
        7,
        397,
        481,
        194,
        354,
        211,
        61,
        106,
        186,
        126,
        386,
        12,
        105,
        264,
        409,
        322,
        248,
        415,
        201,
        172,
        199,
        249,
        284,
        476,
        190,
        14,
        336,
        24,
        168,
        39,
        243,
        43,
        315,
        352,
        486,
        305,
        113,
        455,
        403,
        390,
        311,
        166,
        477,
        82,
        231,
        321,
        346,
        16,
        401,
        316,
        151,
        233,
        314,
        80,
        173,
        200,
        361,
        280,
        45,
        332,
        118,
        273,
        400,
        449,
        174,
        399,
        269,
        304,
        76,
        297,
        133,
        342,
        405,
        302,
        112,
        265,
        104,
        250,
        385,
        156,
        67,
        396,
        445,
        64,
        333,
        30,
        406,
        334,
        288,
        423,
        394,
        192,
        116,
        28,
        193,
        203,
        347,
        493,
        453,
        472,
        337,
        18,
        223,
        421,
        157,
        384,
        95,
        169,
        360,
        272
    ],
    "Nb of functions evaluations": 400020,
    "Computational time in seconds": 1951.6839668750763,
    "Stopping criterion in evaluations": 400000
}